\ LP format - for model browsing. Use MPS format to capture full model detail.
Minimize
  z0 + z1 + z2 + z3 + z4 + z5
Subject To
 R0: x0,1_2 + x0,1_16 + x0,1_23 + x0,1_31 + x0,1_74 - z1 <= 0
 R1: x0,2_2 + x0,2_16 + x0,2_23 + x0,2_31 + x0,2_74 - z2 <= 0
 R2: x0,3_2 + x0,3_16 + x0,3_23 + x0,3_31 + x0,3_74 - z3 <= 0
 R3: x0,4_2 + x0,4_16 + x0,4_23 + x0,4_31 + x0,4_74 - z4 <= 0
 R4: x0,5_2 + x0,5_16 + x0,5_23 + x0,5_31 + x0,5_74 - z5 <= 0
 R5: x1,2_2 + x1,2_16 + x1,2_23 + x1,2_31 + x1,2_74 - z2 <= 0
 R6: x1,3_2 + x1,3_16 + x1,3_23 + x1,3_31 + x1,3_74 - z3 <= 0
 R7: x1,4_2 + x1,4_16 + x1,4_23 + x1,4_31 + x1,4_74 - z4 <= 0
 R8: x1,5_2 + x1,5_16 + x1,5_23 + x1,5_31 + x1,5_74 - z5 <= 0
 R9: x2,3_2 + x2,3_16 + x2,3_23 + x2,3_31 + x2,3_74 - z3 <= 0
 R10: x2,4_2 + x2,4_16 + x2,4_23 + x2,4_31 + x2,4_74 - z4 <= 0
 R11: x2,5_2 + x2,5_16 + x2,5_23 + x2,5_31 + x2,5_74 - z5 <= 0
 R12: x3,4_2 + x3,4_16 + x3,4_23 + x3,4_31 + x3,4_74 - z4 <= 0
 R13: x3,5_2 + x3,5_16 + x3,5_23 + x3,5_31 + x3,5_74 - z5 <= 0
 R14: x4,5_2 + x4,5_16 + x4,5_23 + x4,5_31 + x4,5_74 - z5 <= 0
 R15: x0,1_2 + x0,2_2 + x0,3_2 + x0,4_2 + x0,5_2 + x1,2_2 + x1,3_2 + x1,4_2
   + x1,5_2 + x2,3_2 + x2,4_2 + x2,5_2 + x3,4_2 + x3,5_2 + x4,5_2 = 1
 R16: x0,1_16 + x0,2_16 + x0,3_16 + x0,4_16 + x0,5_16 + x1,2_16 + x1,3_16
   + x1,4_16 + x1,5_16 + x2,3_16 + x2,4_16 + x2,5_16 + x3,4_16 + x3,5_16
   + x4,5_16 = 1
 R17: x0,1_23 + x0,2_23 + x0,3_23 + x0,4_23 + x0,5_23 + x1,2_23 + x1,3_23
   + x1,4_23 + x1,5_23 + x2,3_23 + x2,4_23 + x2,5_23 + x3,4_23 + x3,5_23
   + x4,5_23 = 1
 R18: x0,1_31 + x0,2_31 + x0,3_31 + x0,4_31 + x0,5_31 + x1,2_31 + x1,3_31
   + x1,4_31 + x1,5_31 + x2,3_31 + x2,4_31 + x2,5_31 + x3,4_31 + x3,5_31
   + x4,5_31 = 1
 R19: x0,1_74 + x0,2_74 + x0,3_74 + x0,4_74 + x0,5_74 + x1,2_74 + x1,3_74
   + x1,4_74 + x1,5_74 + x2,3_74 + x2,4_74 + x2,5_74 + x3,4_74 + x3,5_74
   + x4,5_74 = 1
 R20: p0 - p1 <= -1
 R21: - 2 x0,1_2 - p0 + p1 >= 0
 R22: 146 x0,1_2 - p0 + p1 <= 148
 R23: - 16 x0,1_16 - p0 + p1 >= 0
 R24: 146 x0,1_16 - p0 + p1 <= 162
 R25: - 23 x0,1_23 - p0 + p1 >= 0
 R26: 146 x0,1_23 - p0 + p1 <= 169
 R27: - 31 x0,1_31 - p0 + p1 >= 0
 R28: 146 x0,1_31 - p0 + p1 <= 177
 R29: - 74 x0,1_74 - p0 + p1 >= 0
 R30: 146 x0,1_74 - p0 + p1 <= 220
 R31: p0 - p2 <= -1
 R32: - 2 x0,2_2 - p0 + p2 >= 0
 R33: 146 x0,2_2 - p0 + p2 <= 148
 R34: - 16 x0,2_16 - p0 + p2 >= 0
 R35: 146 x0,2_16 - p0 + p2 <= 162
 R36: - 23 x0,2_23 - p0 + p2 >= 0
 R37: 146 x0,2_23 - p0 + p2 <= 169
 R38: - 31 x0,2_31 - p0 + p2 >= 0
 R39: 146 x0,2_31 - p0 + p2 <= 177
 R40: - 74 x0,2_74 - p0 + p2 >= 0
 R41: 146 x0,2_74 - p0 + p2 <= 220
 R42: p0 - p3 <= -1
 R43: - 2 x0,3_2 - p0 + p3 >= 0
 R44: 146 x0,3_2 - p0 + p3 <= 148
 R45: - 16 x0,3_16 - p0 + p3 >= 0
 R46: 146 x0,3_16 - p0 + p3 <= 162
 R47: - 23 x0,3_23 - p0 + p3 >= 0
 R48: 146 x0,3_23 - p0 + p3 <= 169
 R49: - 31 x0,3_31 - p0 + p3 >= 0
 R50: 146 x0,3_31 - p0 + p3 <= 177
 R51: - 74 x0,3_74 - p0 + p3 >= 0
 R52: 146 x0,3_74 - p0 + p3 <= 220
 R53: p0 - p4 <= -1
 R54: - 2 x0,4_2 - p0 + p4 >= 0
 R55: 146 x0,4_2 - p0 + p4 <= 148
 R56: - 16 x0,4_16 - p0 + p4 >= 0
 R57: 146 x0,4_16 - p0 + p4 <= 162
 R58: - 23 x0,4_23 - p0 + p4 >= 0
 R59: 146 x0,4_23 - p0 + p4 <= 169
 R60: - 31 x0,4_31 - p0 + p4 >= 0
 R61: 146 x0,4_31 - p0 + p4 <= 177
 R62: - 74 x0,4_74 - p0 + p4 >= 0
 R63: 146 x0,4_74 - p0 + p4 <= 220
 R64: p0 - p5 <= -1
 R65: - 2 x0,5_2 - p0 + p5 >= 0
 R66: 146 x0,5_2 - p0 + p5 <= 148
 R67: - 16 x0,5_16 - p0 + p5 >= 0
 R68: 146 x0,5_16 - p0 + p5 <= 162
 R69: - 23 x0,5_23 - p0 + p5 >= 0
 R70: 146 x0,5_23 - p0 + p5 <= 169
 R71: - 31 x0,5_31 - p0 + p5 >= 0
 R72: 146 x0,5_31 - p0 + p5 <= 177
 R73: - 74 x0,5_74 - p0 + p5 >= 0
 R74: 146 x0,5_74 - p0 + p5 <= 220
 R75: p1 - p2 <= -1
 R76: - 2 x1,2_2 - p1 + p2 >= 0
 R77: 146 x1,2_2 - p1 + p2 <= 148
 R78: - 16 x1,2_16 - p1 + p2 >= 0
 R79: 146 x1,2_16 - p1 + p2 <= 162
 R80: - 23 x1,2_23 - p1 + p2 >= 0
 R81: 146 x1,2_23 - p1 + p2 <= 169
 R82: - 31 x1,2_31 - p1 + p2 >= 0
 R83: 146 x1,2_31 - p1 + p2 <= 177
 R84: - 74 x1,2_74 - p1 + p2 >= 0
 R85: 146 x1,2_74 - p1 + p2 <= 220
 R86: p1 - p3 <= -1
 R87: - 2 x1,3_2 - p1 + p3 >= 0
 R88: 146 x1,3_2 - p1 + p3 <= 148
 R89: - 16 x1,3_16 - p1 + p3 >= 0
 R90: 146 x1,3_16 - p1 + p3 <= 162
 R91: - 23 x1,3_23 - p1 + p3 >= 0
 R92: 146 x1,3_23 - p1 + p3 <= 169
 R93: - 31 x1,3_31 - p1 + p3 >= 0
 R94: 146 x1,3_31 - p1 + p3 <= 177
 R95: - 74 x1,3_74 - p1 + p3 >= 0
 R96: 146 x1,3_74 - p1 + p3 <= 220
 R97: p1 - p4 <= -1
 R98: - 2 x1,4_2 - p1 + p4 >= 0
 R99: 146 x1,4_2 - p1 + p4 <= 148
 R100: - 16 x1,4_16 - p1 + p4 >= 0
 R101: 146 x1,4_16 - p1 + p4 <= 162
 R102: - 23 x1,4_23 - p1 + p4 >= 0
 R103: 146 x1,4_23 - p1 + p4 <= 169
 R104: - 31 x1,4_31 - p1 + p4 >= 0
 R105: 146 x1,4_31 - p1 + p4 <= 177
 R106: - 74 x1,4_74 - p1 + p4 >= 0
 R107: 146 x1,4_74 - p1 + p4 <= 220
 R108: p1 - p5 <= -1
 R109: - 2 x1,5_2 - p1 + p5 >= 0
 R110: 146 x1,5_2 - p1 + p5 <= 148
 R111: - 16 x1,5_16 - p1 + p5 >= 0
 R112: 146 x1,5_16 - p1 + p5 <= 162
 R113: - 23 x1,5_23 - p1 + p5 >= 0
 R114: 146 x1,5_23 - p1 + p5 <= 169
 R115: - 31 x1,5_31 - p1 + p5 >= 0
 R116: 146 x1,5_31 - p1 + p5 <= 177
 R117: - 74 x1,5_74 - p1 + p5 >= 0
 R118: 146 x1,5_74 - p1 + p5 <= 220
 R119: p2 - p3 <= -1
 R120: - 2 x2,3_2 - p2 + p3 >= 0
 R121: 146 x2,3_2 - p2 + p3 <= 148
 R122: - 16 x2,3_16 - p2 + p3 >= 0
 R123: 146 x2,3_16 - p2 + p3 <= 162
 R124: - 23 x2,3_23 - p2 + p3 >= 0
 R125: 146 x2,3_23 - p2 + p3 <= 169
 R126: - 31 x2,3_31 - p2 + p3 >= 0
 R127: 146 x2,3_31 - p2 + p3 <= 177
 R128: - 74 x2,3_74 - p2 + p3 >= 0
 R129: 146 x2,3_74 - p2 + p3 <= 220
 R130: p2 - p4 <= -1
 R131: - 2 x2,4_2 - p2 + p4 >= 0
 R132: 146 x2,4_2 - p2 + p4 <= 148
 R133: - 16 x2,4_16 - p2 + p4 >= 0
 R134: 146 x2,4_16 - p2 + p4 <= 162
 R135: - 23 x2,4_23 - p2 + p4 >= 0
 R136: 146 x2,4_23 - p2 + p4 <= 169
 R137: - 31 x2,4_31 - p2 + p4 >= 0
 R138: 146 x2,4_31 - p2 + p4 <= 177
 R139: - 74 x2,4_74 - p2 + p4 >= 0
 R140: 146 x2,4_74 - p2 + p4 <= 220
 R141: p2 - p5 <= -1
 R142: - 2 x2,5_2 - p2 + p5 >= 0
 R143: 146 x2,5_2 - p2 + p5 <= 148
 R144: - 16 x2,5_16 - p2 + p5 >= 0
 R145: 146 x2,5_16 - p2 + p5 <= 162
 R146: - 23 x2,5_23 - p2 + p5 >= 0
 R147: 146 x2,5_23 - p2 + p5 <= 169
 R148: - 31 x2,5_31 - p2 + p5 >= 0
 R149: 146 x2,5_31 - p2 + p5 <= 177
 R150: - 74 x2,5_74 - p2 + p5 >= 0
 R151: 146 x2,5_74 - p2 + p5 <= 220
 R152: p3 - p4 <= -1
 R153: - 2 x3,4_2 - p3 + p4 >= 0
 R154: 146 x3,4_2 - p3 + p4 <= 148
 R155: - 16 x3,4_16 - p3 + p4 >= 0
 R156: 146 x3,4_16 - p3 + p4 <= 162
 R157: - 23 x3,4_23 - p3 + p4 >= 0
 R158: 146 x3,4_23 - p3 + p4 <= 169
 R159: - 31 x3,4_31 - p3 + p4 >= 0
 R160: 146 x3,4_31 - p3 + p4 <= 177
 R161: - 74 x3,4_74 - p3 + p4 >= 0
 R162: 146 x3,4_74 - p3 + p4 <= 220
 R163: p3 - p5 <= -1
 R164: - 2 x3,5_2 - p3 + p5 >= 0
 R165: 146 x3,5_2 - p3 + p5 <= 148
 R166: - 16 x3,5_16 - p3 + p5 >= 0
 R167: 146 x3,5_16 - p3 + p5 <= 162
 R168: - 23 x3,5_23 - p3 + p5 >= 0
 R169: 146 x3,5_23 - p3 + p5 <= 169
 R170: - 31 x3,5_31 - p3 + p5 >= 0
 R171: 146 x3,5_31 - p3 + p5 <= 177
 R172: - 74 x3,5_74 - p3 + p5 >= 0
 R173: 146 x3,5_74 - p3 + p5 <= 220
 R174: p4 - p5 <= -1
 R175: - 2 x4,5_2 - p4 + p5 >= 0
 R176: 146 x4,5_2 - p4 + p5 <= 148
 R177: - 16 x4,5_16 - p4 + p5 >= 0
 R178: 146 x4,5_16 - p4 + p5 <= 162
 R179: - 23 x4,5_23 - p4 + p5 >= 0
 R180: 146 x4,5_23 - p4 + p5 <= 169
 R181: - 31 x4,5_31 - p4 + p5 >= 0
 R182: 146 x4,5_31 - p4 + p5 <= 177
 R183: - 74 x4,5_74 - p4 + p5 >= 0
 R184: 146 x4,5_74 - p4 + p5 <= 220
 R185: z0 - z1 >= 0
 R186: z1 - z2 >= 0
 R187: z2 - z3 >= 0
 R188: z3 - z4 >= 0
 R189: z4 - z5 >= 0
Bounds
Binaries
 x0,1_2 x0,1_16 x0,1_23 x0,1_31 x0,1_74 x0,2_2 x0,2_16 x0,2_23 x0,2_31
 x0,2_74 x0,3_2 x0,3_16 x0,3_23 x0,3_31 x0,3_74 x0,4_2 x0,4_16 x0,4_23
 x0,4_31 x0,4_74 x0,5_2 x0,5_16 x0,5_23 x0,5_31 x0,5_74 x1,2_2 x1,2_16
 x1,2_23 x1,2_31 x1,2_74 x1,3_2 x1,3_16 x1,3_23 x1,3_31 x1,3_74 x1,4_2
 x1,4_16 x1,4_23 x1,4_31 x1,4_74 x1,5_2 x1,5_16 x1,5_23 x1,5_31 x1,5_74
 x2,3_2 x2,3_16 x2,3_23 x2,3_31 x2,3_74 x2,4_2 x2,4_16 x2,4_23 x2,4_31
 x2,4_74 x2,5_2 x2,5_16 x2,5_23 x2,5_31 x2,5_74 x3,4_2 x3,4_16 x3,4_23
 x3,4_31 x3,4_74 x3,5_2 x3,5_16 x3,5_23 x3,5_31 x3,5_74 x4,5_2 x4,5_16
 x4,5_23 x4,5_31 x4,5_74 z0 z1 z2 z3 z4 z5
Generals
 p0 p1 p2 p3 p4 p5
End
